Version identifier: 12.10.0.0 | 2019-11-26 | 843d4de
CPXPARAM_WorkMem                                 28672
Tried aggregator 2 times.
Aggregator did 45 substitutions.
Reduced MIP has 199 rows, 240 columns, and 968 nonzeros.
Reduced MIP has 240 binaries, 0 generals, 0 SOSs, and 0 indicators.
Presolve time = 0,00 sec. (0,90 ticks)
Found incumbent of value 180,000000 after 0,00 sec. (1,64 ticks)
Probing time = 0,00 sec. (0,37 ticks)
Tried aggregator 1 time.
Detecting symmetries...
MIP Presolve eliminated 32 rows and 0 columns.
MIP Presolve added 64 rows and 0 columns.
Reduced MIP has 231 rows, 240 columns, and 1000 nonzeros.
Reduced MIP has 240 binaries, 0 generals, 0 SOSs, and 0 indicators.
Presolve time = 0,00 sec. (1,23 ticks)
Probing time = 0,00 sec. (0,36 ticks)
Clique table members: 683.
MIP emphasis: balance optimality and feasibility.
MIP search method: dynamic search.
Parallel mode: deterministic, using up to 16 threads.
Root relaxation solution time = 0,00 sec. (0,67 ticks)

        Nodes                                         Cuts/
   Node  Left     Objective  IInf  Best Integer    Best Bound    ItCnt     Gap

*     0+    0                          180,0000        0,0000           100,00%
*     0+    0                          111,0000        0,0000           100,00%
*     0+    0                          108,0000        0,0000           100,00%
      0     0       45,0000   159      108,0000       45,0000       70   58,33%
      0     0       45,0000   159      108,0000     Cuts: 134      130   58,33%
*     0+    0                          107,0000       45,0000            57,94%
      0     0       45,0000   159      107,0000     Cuts: 157      166   57,94%
      0     0       45,0000   159      107,0000     Cuts: 157      264   57,94%
*     0+    0                          105,0000       45,0000            57,14%
*     0+    0                          103,0000       45,0000            56,31%
*     0+    0                          102,0000       45,0000            55,88%
      0     2       52,6266   152      102,0000       50,9815      302   50,02%
Elapsed time = 0,09 sec. (42,24 ticks, tree = 0,02 MB, solutions = 7)
*    86+    9                          101,0000       52,6641            47,86%

Performing restart 1

Repeating presolve.
Tried aggregator 2 times.
MIP Presolve eliminated 33 rows and 19 columns.
MIP Presolve added 18 rows and 0 columns.
MIP Presolve modified 35 coefficients.
Aggregator did 6 substitutions.
Reduced MIP has 210 rows, 215 columns, and 867 nonzeros.
Reduced MIP has 215 binaries, 0 generals, 0 SOSs, and 0 indicators.
Presolve time = 0,00 sec. (1,38 ticks)
Tried aggregator 1 time.
Reduced MIP has 210 rows, 215 columns, and 867 nonzeros.
Reduced MIP has 215 binaries, 0 generals, 0 SOSs, and 0 indicators.
Presolve time = 0,00 sec. (0,92 ticks)
Represolve time = 0,01 sec. (6,23 ticks)
   4689     0       57,1791   215      101,0000       Cuts: 5    91784   23,99%
   4689     0       58,2097   215      101,0000       Cuts: 7    91829   23,99%
   4689     0       58,6686   215      101,0000      Cuts: 10    91863   23,99%
   4689     0       59,3388   215      101,0000      Cuts: 16    91935   23,99%
   4689     2       59,3388   215      101,0000       76,7695    91935   23,99%
   6340   912       99,7286    85      101,0000       76,7695   125527   23,99%
  10860  4245       96,0993    70      101,0000       76,7695   226882   23,99%

Performing restart 2

Repeating presolve.
Tried aggregator 1 time.
MIP Presolve eliminated 6 rows and 3 columns.
Reduced MIP has 204 rows, 212 columns, and 855 nonzeros.
Reduced MIP has 212 binaries, 0 generals, 0 SOSs, and 0 indicators.
Presolve time = 0,00 sec. (1,05 ticks)
Tried aggregator 1 time.
Reduced MIP has 204 rows, 212 columns, and 855 nonzeros.
Reduced MIP has 212 binaries, 0 generals, 0 SOSs, and 0 indicators.
Presolve time = 0,00 sec. (0,90 ticks)
Represolve time = 0,02 sec. (12,59 ticks)
  10996     0       60,0346   212      101,0000      Cuts: 14   252165   23,99%
  10996     0       60,1078   212      101,0000       Cuts: 6   252194   23,99%
  10996     0       60,4458   212      101,0000       Cuts: 7   252252   23,99%
  10996     0       60,6365   212      101,0000      Cuts: 13   252304   23,99%
  10996     0       60,9301   212      101,0000      Cuts: 10   252357   23,99%
  10996     0       61,5684   212      101,0000      Cuts: 15   252472   23,99%
  10996     2       61,5684   212      101,0000       76,7695   252472   23,99%
  14169  1431       97,0416   119      101,0000       83,0906   338827   17,73%
* 15493+ 1869                          100,0000       88,5286            11,47%
* 17296  1717      integral     0       99,0000       93,2148   435523    5,84%
  18224   544        cutoff             99,0000       95,0000   460856    4,04%

Clique cuts applied:  53
Cover cuts applied:  411
Mixed integer rounding cuts applied:  15
Zero-half cuts applied:  13
Lift and project cuts applied:  2
Gomory fractional cuts applied:  34

Root node processing (before b&c):
  Real time             =    0,09 sec. (42,13 ticks)
Parallel b&c, 16 threads:
  Real time             =    2,24 sec. (1650,22 ticks)
  Sync time (average)   =    0,66 sec.
  Wait time (average)   =    0,01 sec.
                          ------------
Total (root+branch&cut) =    2,33 sec. (1692,35 ticks)
